NAME: ACTUAL_TOURS/amz1505
TYPE: TOUR
COMMENT: RouteID_a192d9a2-ef18-457d-99e9-1be4ef9df864
DIMENSION: 142
TOUR_SECTION
136
27
39
9
80
109
107
95
93
137
85
122
71
40
1
4
106
49
52
112
16
63
101
17
116
114
6
72
105
64
12
48
84
130
28
69
108
127
37
135
14
113
131
50
140
31
120
73
54
92
78
141
90
29
134
62
98
102
126
42
18
24
89
129
133
132
34
13
81
82
47
61
11
86
87
26
118
70
45
99
66
41
32
30
100
125
15
5
7
83
94
46
97
121
67
53
139
19
74
36
33
38
142
56
138
20
77
65
35
111
10
43
51
117
76
104
55
23
22
110
8
115
75
119
79
88
3
68
96
103
21
25
60
123
91
2
128
44
57
58
59
124
-1
EOF
